NAME: random_20_5
TYPE: TSP
COMMENT: random_20_5
DIMENSION: 20
EDGE_WEIGHT_TYPE: EUC_2D
NODE_COORD_SECTION
1 391 479
2 255 391
3 48 63
4 424 319
5 449 223
6 358 226
7 265 95
8 259 150
9 102 66
10 402 216
11 271 61
12 420 346
13 52 129
14 216 158
15 88 98
16 164 276
17 60 270
18 384 474
19 249 267
20 140 78
